# Solution for model GasLib-40
# Objective value = 1.0322908964508267e+01
loadshed[innode_1] 0
loadshed[innode_2] 0
loadshed[innode_3] 0
loadshed[innode_4] 0
loadshed[innode_5] 0
loadshed[innode_6] 0
loadshed[innode_7] 0
loadshed[innode_8] 0
loadshed[source_1] -2.1337366287935366e-01
loadshed[source_2] -4.3208567892289773e-02
loadshed[source_3] 3.2187978802569295e-01
loadshed[sink_1] 0
loadshed[sink_2] 0
loadshed[sink_3] 0
loadshed[sink_4] 0
loadshed[sink_5] 0
loadshed[sink_6] 0
loadshed[sink_7] 0
loadshed[sink_8] 0
loadshed[sink_9] 0
loadshed[sink_10] 0
loadshed[sink_11] 0
loadshed[sink_12] 6.3120972012279841e-01
loadshed[sink_13] 0
loadshed[sink_14] 0
loadshed[sink_15] 0
loadshed[sink_16] 0
loadshed[sink_17] 0
loadshed[sink_18] 0
loadshed[sink_19] 0
loadshed[sink_20] 0
loadshed[sink_21] 0
loadshed[sink_22] 0
loadshed[sink_23] 0
loadshed[sink_24] 0
loadshed[sink_25] 0
loadshed[sink_26] 0
loadshed[sink_27] 0
loadshed[sink_28] 0
loadshed[sink_29] 0
flow[source_1,sink_3] 1.9182257941283672e+02
flow[innode_1,sink_16] 1.6354166666666970e+01
flow[innode_6,sink_13] 7.2749539889227890e+00
flow[sink_13,sink_14] -9.0792126777438789e+00
flow[sink_14,sink_10] -2.5433379344410241e+01
flow[sink_25,sink_26] 1.7607263243889508e+02
flow[sink_26,sink_9] 1.2207388878275171e+02
flow[sink_9,sink_18] 1.0571972211608504e+02
flow[sink_26,sink_4] 3.7644576989476718e+01
flow[sink_4,sink_20] 0
flow[sink_18,sink_6] 8.9365555449418366e+01
flow[sink_25,innode_8] -1.5911424607950033e+02
flow[sink_6,sink_7] 4.0303055449418025e+01
flow[sink_6,sink_22] 3.2708333333333641e+01
flow[sink_7,sink_24] 3.8739591035491742e+01
flow[sink_22,sink_1] 1.6354166666666970e+01
flow[sink_24,sink_21] 2.2385424368825070e+01
flow[sink_21,sink_12] 6.0312577021584026e+00
flow[sink_7,sink_5] -1.4790702252739905e+01
flow[sink_5,sink_17] -3.1144868919406463e+01
flow[sink_17,sink_4] -2.1290410322810033e+01
flow[sink_17,sink_8] -2.6208625263263418e+01
flow[sink_3,sink_23] 16.3541666666697
flow[sink_8,sink_20] -4.2562791929930086e+01
flow[sink_25,sink_20] 5.8916958596596743e+01
flow[sink_25,sink_15] -9.9504465611581963e+01
flow[sink_15,sink_29] -6.4383688467070670e+01
flow[sink_29,sink_28] 1.6354166666667879e+01
flow[sink_29,sink_2] 6.7829110477844665e+01
flow[sink_2,sink_15] 5.1474943811177923e+01
flow[sink_29,innode_7] -1.6492113227824984e+02
flow[innode_4,sink_19] 4.1059121764821384e+01
flow[sink_19,innode_3] 0
flow[innode_4,innode_5] 6.6145090912922342e+01
flow[sink_27,innode_5] -6.6145090912922342e+01
flow[sink_27,sink_19] 49.7909242462556
flow[sink_10,sink_11] 3.2708333333333641e+01
flow[sink_10,innode_2] -7.4495879344411151e+01
flow[sink_10,innode_3] 0
flow[innode_6,sink_25] -7.2749539889227890e+00
flow[sink_11,innode_1] 1.6354166666666970e+01
flow[sink_19,innode_2] 7.4495879344411151e+01
flow[source_3,innode_4] 1.0720421267774375e+02
flow[source_2,innode_7] 1.6492113227824984e+02
flow[sink_3,innode_8] 1.5911424607950033e+02
pressure[innode_1] 7.5260724149054354e+01
pressure[innode_2] 7.9349840358068548e+01
pressure[innode_3] 7.9349840358068548e+01
pressure[innode_4] 81.01325
pressure[innode_5] 8.0967751918628650e+01
pressure[innode_6] 7.4233319906963587e+01
pressure[innode_7] 81.01325
pressure[innode_8] 8.0372060395904285e+01
pressure[source_1] 81.01325
pressure[source_2] 81.01325
pressure[source_3] 81.01325
pressure[sink_1] 4.6213531836098184e+01
pressure[sink_2] 74.8840678711523
pressure[sink_3] 8.0372060395904285e+01
pressure[sink_4] 5.7046398859058328e+01
pressure[sink_5] 5.3912681966561287e+01
pressure[sink_6] 4.8314609446485555e+01
pressure[sink_7] 4.7761344563109226e+01
pressure[sink_8] 5.7221669098995569e+01
pressure[sink_9] 5.4526190498333264e+01
pressure[sink_10] 75.4124254566579
pressure[sink_11] 7.5260724149054354e+01
pressure[sink_12] 1.0132499999999998e+00
pressure[sink_13] 7.4193214301380408e+01
pressure[sink_14] 7.4209462325845152e+01
pressure[sink_15] 7.4716013524503680e+01
pressure[sink_16] 7.4239074314236674e+01
pressure[sink_17] 5.6232749579478529e+01
pressure[sink_18] 5.0700935853210453e+01
pressure[sink_19] 7.9349840358068548e+01
pressure[sink_20] 6.0187697124432496e+01
pressure[sink_21] 3.1595015824477786e+00
pressure[sink_22] 47.2773009784532
pressure[sink_23] 80.2073423842445
pressure[sink_24] 3.4073993587927953e+00
pressure[sink_25] 7.4233319906963587e+01
pressure[sink_26] 6.1832627806015026e+01
pressure[sink_27] 8.0418869887037488e+01
pressure[sink_28] 7.6306973515733063e+01
pressure[sink_29] 7.6602255789350238e+01
interdiction[source_1,sink_3] 0
interdiction[innode_1,sink_16] 0
interdiction[innode_6,sink_13] 0
interdiction[sink_13,sink_14] 0
interdiction[sink_14,sink_10] 0
interdiction[sink_25,sink_26] 0
interdiction[sink_26,sink_9] 0
interdiction[sink_9,sink_18] 0
interdiction[sink_26,sink_4] 0
interdiction[sink_4,sink_20] 1
interdiction[sink_18,sink_6] 0
interdiction[sink_25,innode_8] 0
interdiction[sink_6,sink_7] 0
interdiction[sink_6,sink_22] 0
interdiction[sink_7,sink_24] 0
interdiction[sink_22,sink_1] 0
interdiction[sink_24,sink_21] 0
interdiction[sink_21,sink_12] 0
interdiction[sink_7,sink_5] 0
interdiction[sink_5,sink_17] 0
interdiction[sink_17,sink_4] 0
interdiction[sink_17,sink_8] 0
interdiction[sink_3,sink_23] 0
interdiction[sink_8,sink_20] 0
interdiction[sink_25,sink_20] 0
interdiction[sink_25,sink_15] 0
interdiction[sink_15,sink_29] 0
interdiction[sink_29,sink_28] 0
interdiction[sink_29,sink_2] 0
interdiction[sink_2,sink_15] 0
interdiction[sink_29,innode_7] 0
interdiction[innode_4,sink_19] 0
interdiction[sink_19,innode_3] 0
interdiction[innode_4,innode_5] 0
interdiction[sink_27,innode_5] 0
interdiction[sink_27,sink_19] 0
interdiction[sink_10,sink_11] 0
interdiction[sink_10,innode_2] 0
interdiction[sink_10,innode_3] 1
interdiction[innode_6,sink_25] 0
interdiction[sink_11,innode_1] 0
interdiction[sink_19,innode_2] 0
interdiction[source_3,innode_4] 0
interdiction[source_2,innode_7] 0
interdiction[sink_3,innode_8] 0
WCcheckFlow[source_1,sink_3] 39
WCcheckFlow[innode_1,sink_16] 1
WCcheckFlow[innode_6,sink_13] 13
WCcheckFlow[sink_13,sink_14] 12
WCcheckFlow[sink_14,sink_10] 11
WCcheckFlow[sink_25,sink_26] 15
WCcheckFlow[sink_26,sink_9] 13
WCcheckFlow[sink_9,sink_18] 12
WCcheckFlow[sink_26,sink_4] 1
WCcheckFlow[sink_4,sink_20] 0
WCcheckFlow[sink_18,sink_6] 11
WCcheckFlow[sink_25,innode_8] -36
WCcheckFlow[sink_6,sink_7] 8
WCcheckFlow[sink_6,sink_22] 2
WCcheckFlow[sink_7,sink_24] 3
WCcheckFlow[sink_22,sink_1] 1
WCcheckFlow[sink_24,sink_21] 2
WCcheckFlow[sink_21,sink_12] 1
WCcheckFlow[sink_7,sink_5] 4
WCcheckFlow[sink_5,sink_17] 3
WCcheckFlow[sink_17,sink_4] 0
WCcheckFlow[sink_17,sink_8] 2
WCcheckFlow[sink_3,sink_23] 1
WCcheckFlow[sink_8,sink_20] 1
WCcheckFlow[sink_25,sink_20] 0
WCcheckFlow[sink_25,sink_15] 6
WCcheckFlow[sink_15,sink_29] 5
WCcheckFlow[sink_29,sink_28] 1
WCcheckFlow[sink_29,sink_2] 1
WCcheckFlow[sink_2,sink_15] 0
WCcheckFlow[sink_29,innode_7] 2
WCcheckFlow[innode_4,sink_19] -4
WCcheckFlow[sink_19,innode_3] 1
WCcheckFlow[innode_4,innode_5] 2
WCcheckFlow[sink_27,innode_5] -1
WCcheckFlow[sink_27,sink_19] 0
WCcheckFlow[sink_10,sink_11] 3
WCcheckFlow[sink_10,innode_2] 7
WCcheckFlow[sink_10,innode_3] 0
WCcheckFlow[innode_6,sink_25] -14
WCcheckFlow[sink_11,innode_1] 2
WCcheckFlow[sink_19,innode_2] -6
WCcheckFlow[source_3,innode_4] -1
WCcheckFlow[source_2,innode_7] -1
WCcheckFlow[sink_3,innode_8] 37
